p cnf 154 431
c t mc
-4 2 0
-4 -3 0
-2 3 4 0
6 2 0
6 5 0
-2 -5 -6 0
7 4 0
7 -6 0
-4 6 -7 0
-8 -1 0
-8 -7 0
1 7 8 0
-11 -9 0
-11 10 0
9 -10 11 0
-5 -13 -14 0
5 13 -14 0
-5 13 14 0
5 -13 14 0
15 -12 0
15 -14 0
12 14 -15 0
-11 -15 -16 0
11 15 -16 0
-11 15 16 0
11 -15 16 0
-20 -18 0
-20 -19 0
18 19 20 0
-21 17 0
-21 20 0
-17 -20 21 0
-26 -24 0
-26 -25 0
24 25 26 0
27 -23 0
27 -26 0
23 26 -27 0
-22 -27 -28 0
22 27 -28 0
-22 27 28 0
22 -27 28 0
30 -29 0
30 -23 0
29 23 -30 0
-30 31 -32 0
30 -31 -32 0
-30 -31 32 0
30 31 32 0
-33 6 -34 0
33 -6 -34 0
-33 -6 34 0
33 6 34 0
-35 32 0
-35 34 0
-32 -34 35 0
-36 -35 0
-36 23 0
35 -23 36 0
-37 28 0
-37 36 0
-28 -36 37 0
-38 21 0
-38 37 0
-21 -37 38 0
-39 16 0
-39 -38 0
-16 38 39 0
40 -8 0
40 39 0
8 -39 -40 0
43 -41 0
43 -42 0
41 42 -43 0
-44 43 0
-44 -17 0
-43 17 44 0
46 45 0
46 15 0
-45 -15 -46 0
47 44 0
47 46 0
-44 -46 -47 0
24 -48 -49 0
-24 48 -49 0
24 48 49 0
-24 -48 49 0
12 49 -50 0
-12 -49 -50 0
12 -49 50 0
-12 49 50 0
9 -50 -51 0
-9 50 -51 0
9 50 51 0
-9 -50 51 0
53 -51 0
53 -52 0
51 52 -53 0
54 -53 0
54 -52 0
53 52 -54 0
-13 -52 -55 0
13 52 -55 0
-13 52 55 0
13 -52 55 0
-54 -55 -56 0
54 55 -56 0
-54 55 56 0
54 -55 56 0
-44 15 -57 0
44 -15 -57 0
-44 -15 57 0
44 15 57 0
-60 -58 0
-60 -59 0
58 59 60 0
-61 60 0
-61 -15 0
-60 15 61 0
57 61 -62 0
-57 -61 -62 0
57 -61 62 0
-57 61 62 0
-63 -56 0
-63 -62 0
56 62 63 0
-47 63 -64 0
47 -63 -64 0
-47 -63 64 0
47 63 64 0
65 31 0
65 -33 0
-31 33 -65 0
-66 64 0
-66 -65 0
-64 65 66 0
67 40 0
67 66 0
-40 -66 -67 0
-68 59 0
-68 -33 0
-59 33 68 0
-59 23 -69 0
59 -23 -69 0
-59 -23 69 0
59 23 69 0
70 46 0
70 -69 0
-46 69 -70 0
71 68 0
71 -70 0
-68 70 -71 0
73 -13 0
73 72 0
13 -72 -73 0
-74 -71 0
-74 -73 0
71 73 74 0
-75 32 0
-75 24 0
-32 -24 75 0
-76 -27 -77 0
76 27 -77 0
-76 27 77 0
76 -27 77 0
78 75 0
78 77 0
-75 -77 -78 0
58 1 -79 0
-58 -1 -79 0
58 -1 79 0
-58 1 79 0
80 -75 0
80 1 0
75 -1 -80 0
81 79 0
81 80 0
-79 -80 -81 0
-82 6 0
-82 -59 0
-6 59 82 0
-83 -81 0
-83 -82 0
81 82 83 0
-48 84 -85 0
48 -84 -85 0
-48 -84 85 0
48 84 85 0
87 85 0
87 86 0
-85 -86 -87 0
-89 3 0
-89 88 0
-3 -88 89 0
-90 6 0
-90 -89 0
-6 89 90 0
-91 90 0
-91 -13 0
-90 13 91 0
92 -91 0
92 -43 0
91 43 -92 0
-72 -49 -93 0
72 49 -93 0
-72 49 93 0
72 -49 93 0
94 -92 0
94 -93 0
92 93 -94 0
95 -87 0
95 94 0
87 -94 -95 0
96 -86 0
96 90 0
86 -90 -96 0
-97 96 0
-97 22 0
-96 -22 97 0
-98 95 0
-98 97 0
-95 -97 98 0
-83 98 -99 0
83 -98 -99 0
-83 -98 99 0
83 98 99 0
-78 99 -100 0
78 -99 -100 0
-78 -99 100 0
78 99 100 0
-101 12 0
-101 -58 0
-12 58 101 0
-102 -88 0
-102 101 0
88 -101 102 0
103 -48 0
103 -5 0
48 5 -103 0
104 -102 0
104 103 0
102 -103 -104 0
-106 -105 0
-106 72 0
105 -72 106 0
-107 -89 0
-107 -59 0
89 59 107 0
108 -1 0
108 90 0
1 -90 -108 0
-109 89 0
-109 -76 0
-89 76 109 0
-109 12 -110 0
109 -12 -110 0
-109 -12 110 0
109 12 110 0
88 -110 -111 0
-88 110 -111 0
88 110 111 0
-88 -110 111 0
-108 -111 -112 0
108 111 -112 0
-108 111 112 0
108 -111 112 0
113 107 0
113 -112 0
-107 112 -113 0
116 -114 0
116 115 0
114 -115 -116 0
117 113 0
117 116 0
-113 -116 -117 0
120 118 0
120 -119 0
-118 119 -120 0
60 -77 -121 0
-60 77 -121 0
60 77 121 0
-60 -77 121 0
-122 -121 0
-122 -76 0
121 76 122 0
-123 120 0
-123 -122 0
-120 122 123 0
-124 117 0
-124 -123 0
-117 123 124 0
125 -106 0
125 124 0
106 -124 -125 0
-126 104 0
-126 -125 0
-104 125 126 0
127 -111 0
127 -52 0
111 52 -127 0
-128 126 0
-128 -127 0
-126 127 128 0
-129 31 0
-129 -86 0
-31 86 129 0
130 -128 0
130 129 0
128 -129 -130 0
131 -100 0
131 -130 0
100 130 -131 0
132 74 0
132 131 0
-74 -131 -132 0
133 -34 0
133 89 0
34 -89 -133 0
19 -29 -134 0
-19 29 -134 0
19 29 134 0
-19 -29 134 0
-135 133 0
-135 134 0
-133 -134 135 0
-72 -91 -136 0
72 91 -136 0
-72 91 136 0
72 -91 136 0
-137 -4 0
-137 9 0
4 -9 137 0
-138 118 0
-138 18 0
-118 -18 138 0
-139 23 0
-139 30 0
-23 -30 139 0
140 -138 0
140 -139 0
138 139 -140 0
141 -137 0
141 -140 0
137 140 -141 0
86 -76 -142 0
-86 76 -142 0
86 76 142 0
-86 -76 142 0
143 -142 0
143 59 0
142 -59 -143 0
144 141 0
144 143 0
-141 -143 -144 0
-136 144 -145 0
136 -144 -145 0
-136 -144 145 0
136 144 145 0
-146 -12 0
-146 -72 0
12 72 146 0
-147 146 0
-147 108 0
-146 -108 147 0
-148 147 0
-148 91 0
-147 -91 148 0
-149 145 0
-149 148 0
-145 -148 149 0
-135 -149 -150 0
135 149 -150 0
-135 149 150 0
135 -149 150 0
151 -132 0
151 150 0
132 -150 -151 0
-152 -67 0
-152 -151 0
67 151 152 0
-85 48 -153 0
85 -48 -153 0
-85 -48 153 0
85 48 153 0
154 152 0
154 153 0
-152 -153 -154 0
18 -6 66 -69 0
50 -129 -51 72 0
3 86 -83 -69 139 -147 142 0
-90 135 -7 -138 -128 -112 0
43 -140 50 -115 -45 2 25 0
86 142 9 116 -30 -53 118 -93 79 0
-139 131 151 50 7 -146 19 0
-47 51 19 -69 -109 -32 0
-132 81 90 -83 -52 53 -48 -19 -43 0
121 14 -22 0
-30 -89 -111 -28 137 -43 0
113 -116 64 -97 -154 82 100 0
113 89 91 -46 -129 -15 -116 0
149 81 -10 -113 -141 -29 -57 -52 46 -151 0
-57 -146 61 -110 -107 152 0
-43 -73 149 -138 145 -39 62 121 0
-94 54 -83 30 129 -86 49 -141 -26 -91 0
100 2 -51 -30 -99 0
-12 -38 5 -132 -52 129 145 -11 -88 0
-122 -24 -50 1 114 0
-80 5 -10 2 -82 -40 137 152 6 -63 0
-145 88 27 44 129 -62 -85 -34 4 0
89 -104 81 139 128 94 92 0
-10 -137 -87 143 44 0
-17 135 87 -90 85 118 -34 102 27 0
25 -1 -80 0
-55 35 -147 -52 19 61 0
-45 2 -111 -18 -47 0
70 -133 91 -16 -65 113 -83 -121 0
11 -39 -115 153 -61 -129 -144 116 68 130 0
-58 -93 105 -142 -103 -127 6 0
114 -77 67 -39 89 -45 54 -94 -55 -104 0
125 4 19 0
14 -22 -61 10 30 70 0
89 152 78 50 -68 0
110 -115 -48 127 4 103 -95 141 -144 0
37 79 32 -23 12 0
-24 -148 27 -69 -104 1 4 0
72 112 -117 -1 73 -70 0
51 59 -134 148 121 -116 0
-128 8 44 25 0
25 60 -79 -137 -104 68 0
148 -34 45 -107 149 -118 -19 0
154 0
